c testsat3_10.cnf 
p cnf 90 114 
-2 -4 0 
-2 -3 0 
-2 -7 0 
-4 -3 0 
-4 -7 0 
-3 -7 0 
-4 -2 0 
-4 -6 0 
-4 -8 0 
-2 -6 0 
-2 -8 0 
-6 -8 0 
-7 -3 0 
-7 -8 0 
-7 -6 0 
-3 -8 0 
-3 -6 0 
-8 -6 0 
-11 -13 0 
-11 -12 0 
-11 -16 0 
-13 -12 0 
-13 -16 0 
-12 -16 0 
-13 -11 0 
-13 -15 0 
-13 -17 0 
-11 -15 0 
-11 -17 0 
-15 -17 0 
-16 -12 0 
-16 -17 0 
-16 -15 0 
-12 -17 0 
-12 -15 0 
-17 -15 0 
-20 -22 0 
-20 -21 0 
-20 -25 0 
-22 -21 0 
-22 -25 0 
-21 -25 0 
-22 -20 0 
-22 -24 0 
-22 -26 0 
-20 -24 0 
-20 -26 0 
-24 -26 0 
-25 -21 0 
-25 -26 0 
-25 -24 0 
-21 -26 0 
-21 -24 0 
-26 -24 0 
-29 -31 0 
-29 -30 0 
-29 -34 0 
-31 -30 0 
-31 -34 0 
-30 -34 0 
-31 -29 0 
-31 -33 0 
-31 -35 0 
-29 -33 0 
-29 -35 0 
-33 -35 0 
-34 -30 0 
-34 -35 0 
-34 -33 0 
-30 -35 0 
-30 -33 0 
-35 -33 0 
-38 -40 0 
-38 -39 0 
-38 -43 0 
-40 -39 0 
-40 -43 0 
-39 -43 0 
-40 -38 0 
-40 -42 0 
-40 -44 0 
-38 -42 0 
-38 -44 0 
-42 -44 0 
-43 -39 0 
-43 -44 0 
-43 -42 0 
-39 -44 0 
-39 -42 0 
-44 -42 0 
-47 -49 0 
-47 -48 0 
-47 -52 0 
-49 -48 0 
-49 -52 0 
-48 -52 0 
-49 -47 0 
-49 -51 0 
-49 -53 0 
-47 -51 0 
-47 -53 0 
-51 -53 0 
-52 -48 0 
-52 -53 0 
-52 -51 0 
-48 -53 0 
-48 -51 0 
-53 -51 0 
-56 -58 0 
-56 -57 0 
-56 -61 0 
-58 -57 0 
-58 -61 0 
-57 -61 0 
-58 -56 0 
-58 -60 0 
-58 -62 0 
-56 -60 0 
-56 -62 0 
-60 -62 0 
-61 -57 0 
-61 -62 0 
-61 -60 0 
-57 -62 0 
-57 -60 0 
-62 -60 0 
-65 -67 0 
-65 -66 0 
-65 -70 0 
-67 -66 0 
-67 -70 0 
-66 -70 0 
-67 -65 0 
-67 -69 0 
-67 -71 0 
-65 -69 0 
-65 -71 0 
-69 -71 0 
-70 -66 0 
-70 -71 0 
-70 -69 0 
-66 -71 0 
-66 -69 0 
-71 -69 0 
-74 -76 0 
-74 -75 0 
-74 -79 0 
-76 -75 0 
-76 -79 0 
-75 -79 0 
-76 -74 0 
-76 -78 0 
-76 -80 0 
-74 -78 0 
-74 -80 0 
-78 -80 0 
-79 -75 0 
-79 -80 0 
-79 -78 0 
-75 -80 0 
-75 -78 0 
-80 -78 0 
-83 -85 0 
-83 -84 0 
-83 -88 0 
-85 -84 0 
-85 -88 0 
-84 -88 0 
-85 -83 0 
-85 -87 0 
-85 -89 0 
-83 -87 0 
-83 -89 0 
-87 -89 0 
-88 -84 0 
-88 -89 0 
-88 -87 0 
-84 -89 0 
-84 -87 0 
-89 -87 0
-2 -11 0 
-2 -20 0 
-2 -29 0 
-2 -38 0 
-2 -47 0 
-2 -56 0 
-2 -65 0 
-2 -74 0 
-2 -83 0 
-11 -20 0 
-11 -29 0 
-11 -38 0 
-11 -47 0 
-11 -56 0 
-11 -65 0 
-11 -74 0 
-11 -83 0 
-20 -29 0 
-20 -38 0 
-20 -47 0 
-20 -56 0 
-20 -65 0 
-20 -74 0 
-20 -83 0 
-29 -38 0 
-29 -47 0 
-29 -56 0 
-29 -65 0 
-29 -74 0 
-29 -83 0 
-38 -47 0 
-38 -56 0 
-38 -65 0 
-38 -74 0 
-38 -83 0 
-47 -56 0 
-47 -65 0 
-47 -74 0 
-47 -83 0 
-56 -65 0 
-56 -74 0 
-56 -83 0 
-65 -74 0 
-65 -83 0 
-74 -83 0 
2 11 20 29 38 47 56 65 74 83 0
-3 -12 0 
-3 -21 0 
-3 -30 0 
-3 -39 0 
-3 -48 0 
-3 -57 0 
-3 -66 0 
-3 -75 0 
-3 -84 0 
-12 -21 0 
-12 -30 0 
-12 -39 0 
-12 -48 0 
-12 -57 0 
-12 -66 0 
-12 -75 0 
-12 -84 0 
-21 -30 0 
-21 -39 0 
-21 -48 0 
-21 -57 0 
-21 -66 0 
-21 -75 0 
-21 -84 0 
-30 -39 0 
-30 -48 0 
-30 -57 0 
-30 -66 0 
-30 -75 0 
-30 -84 0 
-39 -48 0 
-39 -57 0 
-39 -66 0 
-39 -75 0 
-39 -84 0 
-48 -57 0 
-48 -66 0 
-48 -75 0 
-48 -84 0 
-57 -66 0 
-57 -75 0 
-57 -84 0 
-66 -75 0 
-66 -84 0 
-75 -84 0 
3 12 21 30 39 48 57 66 75 84 0
-4 -13 0 
-4 -22 0 
-4 -31 0 
-4 -40 0 
-4 -49 0 
-4 -58 0 
-4 -67 0 
-4 -76 0 
-4 -85 0 
-13 -22 0 
-13 -31 0 
-13 -40 0 
-13 -49 0 
-13 -58 0 
-13 -67 0 
-13 -76 0 
-13 -85 0 
-22 -31 0 
-22 -40 0 
-22 -49 0 
-22 -58 0 
-22 -67 0 
-22 -76 0 
-22 -85 0 
-31 -40 0 
-31 -49 0 
-31 -58 0 
-31 -67 0 
-31 -76 0 
-31 -85 0 
-40 -49 0 
-40 -58 0 
-40 -67 0 
-40 -76 0 
-40 -85 0 
-49 -58 0 
-49 -67 0 
-49 -76 0 
-49 -85 0 
-58 -67 0 
-58 -76 0 
-58 -85 0 
-67 -76 0 
-67 -85 0 
-76 -85 0 
4 13 22 31 40 49 58 67 76 85 0
-6 -15 0 
-6 -24 0 
-6 -33 0 
-6 -42 0 
-6 -51 0 
-6 -60 0 
-6 -69 0 
-6 -78 0 
-6 -87 0 
-15 -24 0 
-15 -33 0 
-15 -42 0 
-15 -51 0 
-15 -60 0 
-15 -69 0 
-15 -78 0 
-15 -87 0 
-24 -33 0 
-24 -42 0 
-24 -51 0 
-24 -60 0 
-24 -69 0 
-24 -78 0 
-24 -87 0 
-33 -42 0 
-33 -51 0 
-33 -60 0 
-33 -69 0 
-33 -78 0 
-33 -87 0 
-42 -51 0 
-42 -60 0 
-42 -69 0 
-42 -78 0 
-42 -87 0 
-51 -60 0 
-51 -69 0 
-51 -78 0 
-51 -87 0 
-60 -69 0 
-60 -78 0 
-60 -87 0 
-69 -78 0 
-69 -87 0 
-78 -87 0 
6 15 24 33 42 51 60 69 78 87 0
-7 -16 0 
-7 -25 0 
-7 -34 0 
-7 -43 0 
-7 -52 0 
-7 -61 0 
-7 -70 0 
-7 -79 0 
-7 -88 0 
-16 -25 0 
-16 -34 0 
-16 -43 0 
-16 -52 0 
-16 -61 0 
-16 -70 0 
-16 -79 0 
-16 -88 0 
-25 -34 0 
-25 -43 0 
-25 -52 0 
-25 -61 0 
-25 -70 0 
-25 -79 0 
-25 -88 0 
-34 -43 0 
-34 -52 0 
-34 -61 0 
-34 -70 0 
-34 -79 0 
-34 -88 0 
-43 -52 0 
-43 -61 0 
-43 -70 0 
-43 -79 0 
-43 -88 0 
-52 -61 0 
-52 -70 0 
-52 -79 0 
-52 -88 0 
-61 -70 0 
-61 -79 0 
-61 -88 0 
-70 -79 0 
-70 -88 0 
-79 -88 0 
7 16 25 34 43 52 61 70 79 88 0
-8 -17 0 
-8 -26 0 
-8 -35 0 
-8 -44 0 
-8 -53 0 
-8 -62 0 
-8 -71 0 
-8 -80 0 
-8 -89 0 
-17 -26 0 
-17 -35 0 
-17 -44 0 
-17 -53 0 
-17 -62 0 
-17 -71 0 
-17 -80 0 
-17 -89 0 
-26 -35 0 
-26 -44 0 
-26 -53 0 
-26 -62 0 
-26 -71 0 
-26 -80 0 
-26 -89 0 
-35 -44 0 
-35 -53 0 
-35 -62 0 
-35 -71 0 
-35 -80 0 
-35 -89 0 
-44 -53 0 
-44 -62 0 
-44 -71 0 
-44 -80 0 
-44 -89 0 
-53 -62 0 
-53 -71 0 
-53 -80 0 
-53 -89 0 
-62 -71 0 
-62 -80 0 
-62 -89 0 
-71 -80 0 
-71 -89 0 
-80 -89 0 
8 17 26 35 44 53 62 71 80 89 0